20
587 233 220
119 34 28
84 69 48
97 82 78
109 43 33
80 75 47
74 62 30
40 35 31
58 43 26
111 73 71
95 66 43
96 82 28
84 73 66
62 42 38
108 91 58
96 81 25
42 35 31
75 54 30
117 50 33
115 68 49
105 66 60
thpack7_87